NAME : P = NP
TYPE : TSP
DIMENSION : 58
EDGE_WEIGHT_TYPE : EUC_2D
NODE_COORD_SECTION
0 326 9
1 227 333
2 154 632
3 112 14
4 256 251
5 787 98
6 251 4
7 463 109
8 24 209
9 81 604
10 841 192
11 211 125
12 513 78
13 262 323
14 90 90
15 595 196
16 528 235
17 499 628
18 5 125
19 361 104
20 73 199
21 12 225
22 645 286
23 188 585
24 78 349
25 155 132
26 155 413
27 209 1
28 752 27
29 41 274
30 441 700
31 26 31
32 793 618
33 304 1
34 552 429
35 735 0
36 20 196
37 277 44
38 68 34
39 63 245
40 407 154
41 138 109
42 421 53
43 12 57
44 111 480
45 88 353
46 81 572
47 322 130
48 103 288
49 17 169
50 641 132
51 193 92
52 249 474
53 1 771
54 11 0
55 55 630
56 88 122
57 380 253